
--- Job M-2Rft_good.gms Start 04/12/23 13:55:01 41.2.0 5110e5ff WEX-WEI x86 64bit/MS Windows
--- Applying:
    D:\GAMS\41\gmsprmNT.txt
--- GAMS Parameters defined
    Input "G:\Mi unidad\5. TFG\src\gams\M-2Rft_good.gms"
    PageSize 0
    ScrDir "G:\Mi unidad\5. TFG\src\gams\225a\"
    SysDir D:\GAMS\41\
    LogOption 3
    ErrMsg 1
    ErrorLog 99
    IDE 1
    LstTitleLeftAligned 1
Licensee: GAMS Demo license for Antonio Sevilla Sastre   G221121|0002CO-GEN
          UCM, Spain                                               DL079880
          C:\Users\Antonio\Documents\GAMS\gamslice.txt
          antsev01@ucm.es, Antonio Sevilla Sastre                          
          Demo license for demonstration and instructional purposes only
Processor information: 1 socket(s), 14 core(s), and 20 thread(s) available
GAMS 41.2.0   Copyright (C) 1987-2022 GAMS Development. All rights reserved
--- Starting compilation
--- M-2Rft_good.gms(214) 3 Mb
--- Starting execution: elapsed 0:00:00.040
--- M-2Rft_good.gms(115) 4 Mb
--- Generating MIP model modelo1
--- M-2Rft_good.gms(211) 4 Mb
---   1,261 rows  523 columns  3,919 non-zeroes
---   465 discrete-columns
--- Range statistics (absolute non-zero finite values)
--- RHS       [min, max] : [ 1.000E+00, 2.000E+02] - Zero values observed as well
--- Bound     [min, max] : [ 1.000E+00, 1.000E+00] - Zero values observed as well
--- Matrix    [min, max] : [ 3.219E-01, 3.800E+01]
--- Executing CPLEX (Solvelink=2): elapsed 0:00:00.203

IBM ILOG CPLEX   41.2.0 5110e5ff Nov 14, 2022          WEI x86 64bit/MS Window

--- *** This solver runs with a demo license. No commercial use.
--- GMO setup time: 0.00s
--- Space for names approximately 0.04 Mb
--- Use option 'names no' to turn use of names off
--- GMO memory 0.70 Mb (peak 0.71 Mb)
--- Dictionary memory 0.00 Mb
--- Cplex 22.1.0.0 link memory 0.02 Mb (peak 0.12 Mb)
--- Starting Cplex

Version identifier: 22.1.0.0 | 2022-03-09 | 1a383f8ce
CPXPARAM_Advance                                 0
CPXPARAM_Threads                                 1
CPXPARAM_MIP_Display                             4
CPXPARAM_MIP_Pool_Capacity                       0
CPXPARAM_MIP_Tolerances_AbsMIPGap                0
Generic callback                                 0x50
Found incumbent of value 19.000000 after 0.00 sec. (0.02 ticks)
Tried aggregator 1 time.
MIP Presolve eliminated 1075 rows and 372 columns.
MIP Presolve modified 64 coefficients.
Reduced MIP has 185 rows, 151 columns, and 556 nonzeros.
Reduced MIP has 103 binaries, 3 generals, 0 SOSs, and 0 indicators.
Presolve time = 0.02 sec. (1.29 ticks)
Probing changed sense of 27 constraints.
Probing time = 0.00 sec. (0.24 ticks)
Tried aggregator 2 times.
MIP Presolve eliminated 6 rows and 15 columns.
MIP Presolve modified 36 coefficients.
Aggregator did 12 substitutions.
Reduced MIP has 167 rows, 124 columns, and 502 nonzeros.
Reduced MIP has 85 binaries, 3 generals, 0 SOSs, and 0 indicators.
Presolve time = 0.00 sec. (0.47 ticks)
Probing time = 0.00 sec. (0.22 ticks)
Tried aggregator 1 time.
Detecting symmetries...
MIP Presolve modified 18 coefficients.
Reduced MIP has 167 rows, 124 columns, and 502 nonzeros.
Reduced MIP has 85 binaries, 3 generals, 0 SOSs, and 0 indicators.
Presolve time = 0.00 sec. (0.45 ticks)
Probing time = 0.00 sec. (0.23 ticks)
Clique table members: 411.
MIP emphasis: balance optimality and feasibility.
MIP search method: dynamic search.
Parallel mode: none, using 1 thread.
Tried aggregator 1 time.
No LP presolve or aggregator reductions.
Presolve time = 0.00 sec. (0.07 ticks)
Initializing dual steep norms . . .

Iteration log . . .
Iteration:     1   Dual objective     =             0.000000

Iteration log . . .
Iteration:     1   Dual objective     =             0.000000
Root relaxation solution time = 0.00 sec. (0.36 ticks)

        Nodes                                         Cuts/
   Node  Left     Objective  IInf  Best Integer    Best Bound    ItCnt     Gap

*     0+    0                           19.0000        0.0000           100.00%
Found incumbent of value 19.000000 after 0.02 sec. (3.79 ticks)
      0     0        0.0000     5       19.0000        0.0000       24  100.00%
*     0+    0                            2.0000        0.0000           100.00%
Found incumbent of value 2.000000 after 0.02 sec. (3.97 ticks)
      0     0        0.0000     2        2.0000      Cuts: 13       31  100.00%
*     0+    0                            1.0000        0.0000           100.00%
Found incumbent of value 1.000000 after 0.03 sec. (4.58 ticks)
      0     0        0.0000    20        1.0000       Cuts: 6       38  100.00%
*     0+    0                            0.0000        0.0000             0.00%
Found incumbent of value 0.000000 after 0.03 sec. (5.10 ticks)
      0     0        cutoff              0.0000        0.0000       38    0.00%
Elapsed time = 0.03 sec. (5.10 ticks, tree = 0.01 MB)

Clique cuts applied:  4
Cover cuts applied:  2
Flow cuts applied:  2
Mixed integer rounding cuts applied:  2
Lift and project cuts applied:  2
Gomory fractional cuts applied:  1

Root node processing (before b&c):
  Real time             =    0.03 sec. (5.11 ticks)
Sequential b&c:
  Real time             =    0.00 sec. (0.00 ticks)
                          ------------
Total (root+branch&cut) =    0.03 sec. (5.11 ticks)

--- MIP status (101): integer optimal solution.
--- Cplex Time: 0.03sec (det. 5.12 ticks)

--- Fixing integer variables and solving final LP...

Version identifier: 22.1.0.0 | 2022-03-09 | 1a383f8ce
CPXPARAM_Advance                                 2
CPXPARAM_Threads                                 1
CPXPARAM_MIP_Display                             4
CPXPARAM_MIP_Pool_Capacity                       0
CPXPARAM_MIP_Tolerances_AbsMIPGap                0
Tried aggregator 1 time.
LP Presolve eliminated 1236 rows and 505 columns.
Aggregator did 6 substitutions.
Reduced LP has 18 rows, 12 columns, and 36 nonzeros.
Presolve time = 0.00 sec. (0.56 ticks)

--- Fixed MIP status (1): optimal.
--- Cplex Time: 0.00sec (det. 0.99 ticks)


Proven optimal solution
MIP Solution:            0.000000    (38 iterations, 0 nodes)
Final Solve:             0.000000    (0 iterations)

Best possible:           0.000000
Absolute gap:            0.000000
Relative gap:            0.000000

--- Reading solution for model modelo1
*** Status: Normal completion
--- Job M-2Rft_good.gms Stop 04/12/23 13:55:02 elapsed 0:00:00.413
